\ENCODING=ISO-8859-1
\Problem name: IloCplex

Minimize
 obj: x1 + x2 + x3 + x4 + x5 + x6 + x7 + x8 + x9 + x10 + x11 + x12 + x13 + x14
      + x15 + x16 + x17 + x18 + x19 + x20 + x21 + x22 + x23 + x24 + x25 + x26
      + x27 + x28 + x29 + x30 + x31 + x32 + x33 + x34 + x35 + x36 + x37 + x38
      + x39 + x40 + x41 + x42 + x43 + x44 + x45 + x46 + x47 + x48 + x49 + x50
      + x51 + x52 + x53 + x54 + x55 + x56 + x57 + x58 + x59 + x60 + x61 + x62
      + x63 + x64 + x65 + x66 + x67 + x68 + x69 + x70 + x71 + x72 + x73 + x74
      + x75 + x76 + x77 + x78 + x79 + x80 + x81 + x82 + x83 + x84 + x85 + x86
      + x87 + x88 + x89 + x90 + x91 + x92 + x93 + x94 + x95 + x96 + x97 + x98
      + x99 + x100 + x101 + x102 + x103 + x104 + x105 + x106 + x107 + x108
      + x109 + x110 + x111 + x112 + x113 + x114 + x115 + x116 + x117 + x118
      + x119 + x120 + x121 + x122 + x123 + x124 + x125 + x126 + x127 + x128
      + x129 + x130 + x131 + x132 + x133 + x134 + x135 + x136 + x137 + x138
      + x139 + x140 + x141 + x142 + x143 + x144 + x145 + x146 + x147 + x148
      + x149 + x150 + x151 + x152 + x153 + x154 + x155 + x156 + x157 + x158
      + x159 + x160 + x161 + x162 + x163 + x164 + x165 + x166 + x167 + x168
      + x169 + x170 + x171 + x172 + x173 + x174 + x175 + x176 + x177 + x178
      + x179 + x180 + x181 + x182
Subject To
 c1:  x1 + x177 + x180  = 1
 c2:  x2 + x170 + x181  = 1
 c3:  x3 + x163 + x174  = 1
 c4:  x4 + x161 + x169  = 1
 c5:  x5 + x154 + x160 + x166  = 1
 c6:  x6 + x157 + x159 + x178  = 1
 c7:  x7 + x149 + x152 + x168  = 1
 c8:  x8 + x147 + x148 + x158 + x162 + x173 + x182  = 1
 c9:  x9 + x143 + x145 + x153  = 1
 c10: x10 + x139 + x141 + x150  = 1
 c11: x11 + x132 + x137 + x146 + x171  = 1
 c12: x12 + x133 + x135 + x142 + x156  = 1
 c13: x13 + x130 + x131 + x140  = 1
 c14: x14 + x128 + x129 + x172  = 1
 c15: x15 + x125 + x127  = 1
 c16: x16 + x123 + x124 + x126  = 1
 c17: x17 + x120 + x122 + x134 + x136 + x167 + x176  = 1
 c18: x18 + x118 + x165  = 1
 c19: x19 + x118 + x119 + x121 + x164 + x179  = 1
 c20: x20 + x116 + x117 + x176  = 1
 c21: x21 + x107 + x115 + x117  = 1
 c22: x22 + x107 + x115 + x116  = 1
 c23: x23 + x104 + x106 + x111 + x113 + x114 + x155  = 1
 c24: x24 + x99 + x103 + x104 + x109 + x110 + x144 + x175 + x179  = 1
 c25: x25 + x97 + x99 + x100 + x106 + x122 + x126  = 1
 c26: x26 + x91 + x97 + x109 + x123 + x151 + x155 + x175  = 1
 c27: x27 + x89 + x91 + x102 + x103 + x127  = 1
 c28: x28 + x73 + x89 + x94 + x100 + x105 + x112 + x124 + x125 + x138 + x172
       = 1
 c29: x29 + x73 + x75 + x87 + x98 + x101 + x128  = 1
 c30: x30 + x82 + x84 + x85 + x87 + x94 + x95 + x96 + x114 + x138 + x164 + x165
      + x167  = 1
 c31: x31 + x77 + x83 + x84 + x86 + x88 + x98 + x110 + x131  = 1
 c32: x32 + x77 + x80 + x81 + x101 + x102 + x129 + x156 + x171  = 1
 c33: x33 + x69 + x70 + x74 + x76 + x82 + x86 + x93 + x96 + x105 + x108 + x111
      + x121 + x140 + x150 + x151  = 1
 c34: x34 + x69 + x70 + x72 + x75 + x79 + x80 + x83 + x90 + x92 + x96 + x136
      + x143 + x173  = 1
 c35: x35 + x66 + x68 + x69 + x78 + x79 + x92 + x108 + x113 + x135 + x141
      + x151 + x153 + x182  = 1
 c36: x36 + x66 + x67 + x68 + x71 + x76 + x83 + x95 + x112 + x132 + x145 + x147
      + x152  = 1
 c37: x37 + x60 + x63 + x64 + x66 + x67 + x72 + x74 + x80 + x85 + x93 + x98
      + x102 + x146 + x149 + x166  = 1
 c38: x38 + x60 + x63 + x65 + x66 + x75 + x88 + x90 + x93 + x101 + x138 + x157
       = 1
 c39: x39 + x60 + x63 + x64 + x65 + x67 + x68 + x71 + x78 + x81 + x86 + x90
      + x92 + x111 + x119 + x120 + x142 + x144 + x154 + x178  = 1
 c40: x40 + x56 + x57 + x58 + x59 + x61 + x62 + x65 + x68 + x74 + x79 + x81
      + x88 + x92 + x93 + x112 + x134 + x144 + x148 + x160 + x161  = 1
 c41: x41 + x53 + x54 + x55 + x56 + x57 + x58 + x59 + x61 + x65 + x71 + x72
      + x76 + x78 + x82 + x85 + x91 + x108 + x110 + x114 + x136 + x181  = 1
 c42: x42 + x51 + x52 + x53 + x54 + x58 + x59 + x61 + x62 + x64 + x71 + x72
      + x73 + x79 + x90 + x94 + x95 + x108 + x113 + x119 + x130 + x133 + x137
      + x158 + x170 + x180  = 1
 c43: x43 + x51 + x52 + x53 + x54 + x55 + x57 + x61 + x62 + x63 + x67 + x70
      + x77 + x85 + x95 + x105 + x121 + x130 + x134 + x137 + x139 + x159 + x162
      + x163 + x175  = 1
 c44: x44 + x51 + x52 + x53 + x54 + x55 + x56 + x58 + x60 + x62 + x70 + x76
      + x78 + x81 + x88 + x100 + x103 + x109 + x120 + x155 + x169 + x177  = 1
 c45: x45 + x51 + x52 + x53 + x54 + x55 + x56 + x57 + x59 + x61 + x62 + x64
      + x69 + x71 + x74 + x77 + x83 + x87 + x105 + x106 + x133 + x139 + x144
      + x146 + x162 + x168  = 1
 c46: x46 + x51 + x52 + x53 + x54 + x55 + x56 + x57 + x58 + x61 + x64 + x70
      + x78 + x80 + x82 + x84 + x89 + x97 + x99 + x112 + x113 + x119 + x120
      + x134 + x142 + x158 + x164 + x165 + x174  = 1
 c47: x47 + x51 + x52 + x53 + x54 + x55 + x56 + x57 + x58 + x59 + x62 + x63
      + x64 + x65 + x75 + x76 + x79 + x84 + x86 + x87 + x89 + x104 + x107
      + x132 + x148 + x159 + x168 + x169 + x174  = 1
 c48: x48 + x51 + x52 + x53 + x56 + x57 + x58 + x59 + x60 + x65 + x67 + x69
      + x73 + x80 + x84 + x85 + x94 + x96 + x99 + x106 + x121 + x122 + x132
      + x145 + x149 + x160 + x163  = 1
 c49: x49 + x51 + x52 + x54 + x56 + x59 + x60 + x63 + x67 + x68 + x72 + x73
      + x75 + x88 + x89 + x96 + x97 + x100 + x110 + x113 + x123 + x130 + x135
      + x139 + x143 + x147 + x164 + x165 + x170 + x182  = 1
 c50: x50 + x51 + x55 + x57 + x58 + x59 + x60 + x63 + x68 + x69 + x71 + x74
      + x75 + x80 + x82 + x85 + x91 + x100 + x109 + x113 + x124 + x135 + x153
      + x164 + x165 + x166 + x170  = 1
End
